p cnf 50 50
-19 -36 -13 0
-24 -42 -50 0
-10 44 47 0
-32 -48 -30 0
-30 9 -3 0
-46 -38 44 0
8 29 14 0
-18 30 6 0
7 5 -18 0
-12 35 -16 0
39 -18 -1 0
12 -1 -13 0
38 -8 43 0
-7 -40 10 0
8 -5 19 0
-20 -19 -29 0
28 4 17 0
45 30 5 0
-42 -32 -38 0
43 23 11 0
-39 -11 -5 0
-17 -35 -16 0
36 18 -20 0
-12 46 19 0
33 -15 -1 0
-37 49 -28 0
-32 23 -28 0
-50 -16 21 0
-40 16 2 0
-49 24 48 0
-9 -14 31 0
-50 16 38 0
34 49 -40 0
23 48 24 0
-39 43 27 0
46 -6 10 0
34 35 -30 0
27 44 -5 0
29 -26 34 0
32 18 -11 0
-28 -3 -43 0
-45 -31 30 0
27 -12 15 0
11 -44 -38 0
-38 -28 39 0
14 24 48 0
17 -38 -50 0
15 -22 -41 0
24 9 -30 0
-36 -45 19 0
